data;


param d:= 100;
param r:=5;
param p:=0.760000;
param M:=1000;
param U:=
         1         1        1.829695e-01
         2         1       -9.834397e-01
         3         1        3.552281e-01
         4         1        1.385246e-01
         5         1        6.171138e-01
         6         1        9.856329e-02
         7         1       -1.670900e+00
         8         1        4.827406e-01
         9         1       -1.521016e-01
        10         1       -6.413905e-01
        11         1       -5.471286e-01
        12         1       -1.071403e-01
        13         1        1.134949e+00
        14         1       -2.816999e-01
        15         1       -2.105368e-01
        16         1       -6.784831e-02
        17         1       -2.488845e-01
        18         1        9.201250e-01
        19         1       -7.367201e-03
        20         1       -5.617238e-01
        21         1       -8.807385e-01
        22         1        3.541769e-01
        23         1        2.204538e-01
        24         1        4.803542e-01
        25         1       -5.841526e-02
        26         1       -6.900145e-02
        27         1        1.081194e+00
        28         1       -2.303502e-01
        29         1        5.488279e-01
        30         1       -5.065585e-01
        31         1       -8.350905e-01
        32         1        6.765087e-01
        33         1        1.136145e-01
        34         1        1.418723e+00
        35         1       -4.667049e-01
        36         1       -1.162053e+00
        37         1       -1.394441e+00
        38         1       -1.331516e+00
        39         1        3.307560e+00
        40         1        5.489640e-01
        41         1        2.586277e-01
        42         1        6.435774e-01
        43         1        4.831094e-01
        44         1       -6.308887e-01
        45         1        2.221091e-02
        46         1       -6.881900e-01
        47         1        1.111944e+00
        48         1       -1.450590e+00
        49         1       -1.278382e+00
        50         1        8.919790e-01
        51         1       -5.676386e-02
        52         1        8.337735e-01
        53         1       -2.116172e-01
        54         1        2.030312e+00
        55         1       -7.310388e-01
        56         1       -1.289184e-01
        57         1       -1.029342e+00
        58         1        4.083290e-01
        59         1        3.880995e-02
        60         1       -1.461315e+00
        61         1       -6.892853e-01
        62         1       -3.490200e-01
        63         1       -1.094872e+00
        64         1       -2.247734e+00
        65         1        1.843293e+00
        66         1       -6.871586e-01
        67         1        8.858761e-02
        68         1       -2.429917e-02
        69         1        1.057204e+00
        70         1       -5.569092e-01
        71         1       -8.107175e-01
        72         1       -2.408338e-02
        73         1       -1.268170e+00
        74         1        1.205418e+00
        75         1       -4.456227e-01
        76         1       -6.973524e-01
        77         1        6.101181e-01
        78         1       -2.254901e+00
        79         1       -3.160724e-02
        80         1       -9.898590e-01
        81         1        8.849969e-01
        82         1        2.575390e-01
        83         1       -2.332538e-01
        84         1        1.071279e+00
        85         1        7.775031e-01
        86         1       -2.215345e-01
        87         1        1.185900e+00
        88         1        1.078417e+00
        89         1       -1.955157e-01
        90         1        4.210375e-01
        91         1       -1.582232e+00
        92         1        1.675467e+00
        93         1        1.278825e+00
        94         1       -1.262499e+00
        95         1        1.501761e+00
        96         1        1.165670e+00
        97         1        7.245231e-01
        98         1       -7.340848e-01
        99         1       -1.036341e-01
       100         1        5.806377e-01
         1         2        1.746577e-01
         2         2       -6.795311e-01
         3         2        1.611741e+00
         4         2        5.558432e-01
         5         2        1.813032e-01
         6         2        4.262896e-01
         7         2        1.015544e+00
         8         2       -6.753430e-02
         9         2        6.568867e-01
        10         2       -8.926560e-01
        11         2        1.270717e+00
        12         2        1.850147e+00
        13         2       -3.896995e-01
        14         2        6.667154e-01
        15         2       -1.391341e+00
        16         2        2.506194e-01
        17         2       -1.516110e+00
        18         2        7.400533e-02
        19         2       -4.775130e-01
        20         2        1.592428e+00
        21         2        1.372626e+00
        22         2        1.056735e+00
        23         2       -1.487427e-01
        24         2        8.165335e-01
        25         2        2.362508e-01
        26         2        3.551803e-01
        27         2        1.980996e-01
        28         2        9.383842e-02
        29         2       -2.502123e+00
        30         2       -8.941096e-01
        31         2       -1.517663e+00
        32         2       -6.693182e-01
        33         2        3.904960e-01
        34         2       -7.361024e-01
        35         2        2.089710e-01
        36         2       -2.439563e+00
        37         2       -1.647498e+00
        38         2       -3.415163e-01
        39         2        1.227137e+00
        40         2       -4.989817e-01
        41         2        7.198802e-01
        42         2        3.412283e-02
        43         2        3.312528e-01
        44         2        1.220724e-01
        45         2       -6.871695e-01
        46         2       -1.326483e+00
        47         2       -1.567103e+00
        48         2        1.514910e+00
        49         2       -2.238587e-01
        50         2        2.018460e-01
        51         2       -1.360786e+00
        52         2       -9.087177e-01
        53         2        1.187548e+00
        54         2       -4.636550e-01
        55         2        1.455619e+00
        56         2        4.025465e-01
        57         2       -6.468819e-01
        58         2       -4.048499e-01
        59         2        8.172204e-01
        60         2        1.048494e+00
        61         2        1.760076e+00
        62         2       -1.006098e+00
        63         2        4.963055e-01
        64         2       -6.737393e-01
        65         2        1.482654e+00
        66         2       -6.847202e-01
        67         2        9.186188e-01
        68         2       -1.914996e-01
        69         2        2.751855e-01
        70         2        3.819082e-01
        71         2        4.037320e-01
        72         2        1.226527e+00
        73         2        1.012104e+00
        74         2        3.597541e-01
        75         2        1.445926e-01
        76         2       -2.331122e+00
        77         2        1.871229e+00
        78         2       -1.796990e-01
        79         2       -4.054534e-01
        80         2        1.647714e+00
        81         2        1.298862e+00
        82         2        1.675999e+00
        83         2        1.056160e+00
        84         2       -5.462089e-01
        85         2       -1.392755e+00
        86         2       -1.264154e+00
        87         2       -1.468956e+00
        88         2       -8.039933e-01
        89         2        1.646867e+00
        90         2        7.179287e-02
        91         2       -6.463995e-01
        92         2       -1.749069e+00
        93         2        3.742093e-01
        94         2        1.595769e+00
        95         2        1.919826e+00
        96         2       -1.405234e+00
        97         2        2.595421e-01
        98         2       -1.304228e+00
        99         2        3.755295e-01
       100         2       -1.695490e+00
         1         3        4.189132e-02
         2         3       -2.512212e+00
         3         3       -2.705346e-01
         4         3       -1.070624e+00
         5         3       -9.653471e-01
         6         3       -1.535389e+00
         7         3        2.262454e+00
         8         3       -1.713158e+00
         9         3       -5.065840e-01
        10         3       -1.024560e+00
        11         3       -1.204065e+00
        12         3        7.642397e-01
        13         3       -1.374823e+00
        14         3       -4.923862e-01
        15         3        2.205307e+00
        16         3        1.037904e-01
        17         3       -1.559852e+00
        18         3        1.452857e+00
        19         3        1.052594e+00
        20         3       -4.335703e-01
        21         3        2.448203e-01
        22         3       -6.777055e-01
        23         3       -1.723691e+00
        24         3        3.749226e-01
        25         3        3.741326e-01
        26         3       -1.787053e-01
        27         3        5.638517e-01
        28         3        3.877249e-01
        29         3       -1.687687e+00
        30         3        7.719146e-01
        31         3       -3.520232e-01
        32         3       -1.457156e+00
        33         3       -7.151193e-02
        34         3        1.248479e+00
        35         3        7.146122e-01
        36         3       -1.072686e+00
        37         3       -1.032985e+00
        38         3       -1.083601e+00
        39         3       -3.696148e-01
        40         3        7.429803e-01
        41         3        5.227009e-02
        42         3       -1.010626e+00
        43         3        4.322084e-01
        44         3        3.440764e-02
        45         3       -2.124133e-02
        46         3       -7.377656e-01
        47         3       -1.317313e+00
        48         3       -6.980486e-02
        49         3       -1.688420e+00
        50         3        7.510604e-01
        51         3        1.483167e-01
        52         3        4.686758e-01
        53         3        6.130473e-01
        54         3       -1.991463e-01
        55         3       -3.477392e-02
        56         3        3.544744e-01
        57         3       -3.091477e+00
        58         3       -2.371713e-01
        59         3       -8.304578e-01
        60         3        1.802679e+00
        61         3        1.153288e+00
        62         3       -8.150514e-01
        63         3        4.799494e-01
        64         3        2.113905e+00
        65         3        1.821972e-01
        66         3       -2.345015e-01
        67         3        2.321263e+00
        68         3        3.670472e-01
        69         3        5.839222e-01
        70         3       -1.177999e+00
        71         3        1.976259e-01
        72         3       -1.030553e+00
        73         3       -1.310167e+00
        74         3       -1.354856e+00
        75         3       -4.291626e-01
        76         3       -1.467894e+00
        77         3        2.083669e-01
        78         3       -1.529394e+00
        79         3       -1.729214e+00
        80         3        8.751623e-01
        81         3        6.790397e-01
        82         3       -7.834424e-01
        83         3       -1.855961e+00
        84         3        9.533258e-02
        85         3        1.500524e+00
        86         3        9.390608e-01
        87         3        2.797531e-01
        88         3        6.147882e-02
        89         3       -1.718819e-01
        90         3       -3.926383e-01
        91         3        1.321132e+00
        92         3        6.949418e-02
        93         3       -1.316311e+00
        94         3       -2.748914e-02
        95         3       -2.950232e-01
        96         3        5.222953e-01
        97         3       -1.956615e+00
        98         3        4.443378e-02
        99         3       -1.374557e-01
       100         3        8.665682e-01
         1         4        8.691137e-01
         2         4        5.305870e-01
         3         4        1.906110e+00
         4         4       -3.086953e-01
         5         4        7.486092e-01
         6         4        1.081750e+00
         7         4        5.461765e-02
         8         4        6.669003e-01
         9         4       -1.444064e+00
        10         4        2.034038e-01
        11         4        4.697715e-01
        12         4       -6.520611e-01
        13         4       -1.066495e+00
        14         4       -2.935601e-01
        15         4       -3.865490e-02
        16         4       -9.008304e-02
        17         4        1.056550e+00
        18         4       -4.000513e-01
        19         4       -1.065728e+00
        20         4       -2.465236e-03
        21         4       -2.560158e-01
        22         4        1.288130e+00
        23         4       -1.628639e+00
        24         4       -2.235444e-01
        25         4       -2.733976e-01
        26         4       -7.804860e-01
        27         4        3.263919e-01
        28         4        1.268544e-01
        29         4        3.846087e-01
        30         4        1.091018e+00
        31         4        1.829527e-01
        32         4        2.236336e+00
        33         4        6.339384e-01
        34         4       -5.677588e-01
        35         4        8.266086e-01
        36         4        4.195517e-01
        37         4        1.535615e+00
        38         4        1.295741e+00
        39         4       -1.034475e-01
        40         4       -6.375351e-01
        41         4        8.288951e-01
        42         4       -1.226069e+00
        43         4        1.922447e+00
        44         4        5.568192e-01
        45         4       -1.368606e+00
        46         4        8.106243e-02
        47         4        9.849053e-01
        48         4        1.183749e+00
        49         4       -3.756689e-01
        50         4       -1.025908e+00
        51         4       -5.906139e-01
        52         4        1.414024e-01
        53         4        6.985832e-01
        54         4        1.090212e-01
        55         4       -1.474762e+00
        56         4        2.481311e-01
        57         4       -1.444119e+00
        58         4        8.533091e-01
        59         4       -1.479401e+00
        60         4       -2.513344e-01
        61         4       -1.123584e+00
        62         4        1.062238e+00
        63         4        3.799435e-01
        64         4        1.224788e+00
        65         4       -4.779796e-01
        66         4        3.825320e-02
        67         4       -5.700320e-01
        68         4       -1.117793e+00
        69         4        1.235539e+00
        70         4       -1.629356e+00
        71         4        4.186029e-01
        72         4        7.463045e-01
        73         4       -1.832172e+00
        74         4       -5.364383e-01
        75         4        2.299162e+00
        76         4       -1.944493e+00
        77         4        1.456214e+00
        78         4       -1.307549e+00
        79         4        6.800767e-02
        80         4        1.386249e+00
        81         4       -4.784148e-01
        82         4       -9.846328e-01
        83         4        1.051195e+00
        84         4       -8.970278e-02
        85         4       -1.527425e+00
        86         4       -5.280360e-01
        87         4        1.158238e+00
        88         4       -2.926310e-01
        89         4       -1.193957e+00
        90         4       -2.749019e-01
        91         4       -1.044601e+00
        92         4       -2.275297e-01
        93         4       -9.362989e-01
        94         4       -9.452752e-01
        95         4        1.095900e+00
        96         4        5.894626e-01
        97         4       -1.398231e+00
        98         4        1.061530e+00
        99         4       -4.504333e-01
       100         4        1.542860e-01
         1         5        9.200378e-01
         2         5        1.873812e+00
         3         5        9.252569e-01
         4         5        1.519020e+00
         5         5       -6.871779e-01
         6         5       -6.583716e-01
         7         5        1.740720e-02
         8         5       -1.279548e+00
         9         5       -3.858604e-01
        10         5        2.010518e+00
        11         5        2.215620e-01
        12         5       -8.317487e-01
        13         5       -5.757733e-01
        14         5        1.066554e-02
        15         5        5.505558e-01
        16         5        2.474990e-01
        17         5        5.998780e-01
        18         5       -7.595302e-01
        19         5       -1.241463e-01
        20         5       -6.848798e-02
        21         5        1.210396e+00
        22         5       -6.356580e-01
        23         5       -1.129801e+00
        24         5       -3.843451e-01
        25         5       -1.794648e+00
        26         5       -9.045821e-01
        27         5       -7.208291e-01
        28         5        7.488146e-01
        29         5       -1.132503e+00
        30         5       -4.289304e-01
        31         5       -5.234646e-01
        32         5       -1.599339e-01
        33         5        9.940096e-01
        34         5       -9.542988e-01
        35         5       -7.113973e-01
        36         5       -1.054518e+00
        37         5       -2.364154e-01
        38         5        1.318297e+00
        39         5        3.520758e-01
        40         5        1.810625e+00
        41         5        4.378573e-02
        42         5       -2.837199e-01
        43         5        3.572187e-01
        44         5        1.249744e+00
        45         5        1.345195e+00
        46         5       -5.959907e-01
        47         5       -7.346939e-02
        48         5        4.993463e-01
        49         5        1.597283e+00
        50         5       -2.439967e-01
        51         5       -4.052990e-01
        52         5       -5.676145e-01
        53         5        2.264660e+00
        54         5       -1.339741e+00
        55         5        5.721762e-02
        56         5        8.527690e-01
        57         5       -7.575828e-01
        58         5        1.188310e+00
        59         5       -3.013686e+00
        60         5       -3.490803e-01
        61         5        1.387094e+00
        62         5       -1.169589e-01
        63         5        8.847464e-01
        64         5       -6.631331e-02
        65         5       -9.053826e-01
        66         5       -2.978476e-01
        67         5        7.007915e-01
        68         5        6.149923e-01
        69         5       -7.491697e-01
        70         5       -2.083922e+00
        71         5        7.993263e-02
        72         5       -7.177434e-01
        73         5        6.788285e-01
        74         5        1.568911e+00
        75         5       -2.291801e+00
        76         5       -6.287665e-01
        77         5        2.768006e-01
        78         5        7.531552e-01
        79         5        2.379423e-01
        80         5       -3.357798e-01
        81         5        1.468664e+00
        82         5       -2.376624e+00
        83         5        6.862329e-01
        84         5        1.413134e+00
        85         5       -1.000977e+00
        86         5       -2.670141e-01
        87         5        2.816209e-02
        88         5        4.165648e-01
        89         5       -1.814528e-01
        90         5       -1.779260e+00
        91         5        1.462773e-01
        92         5       -1.191416e+00
        93         5       -5.987722e-01
        94         5        1.558660e+00
        95         5        8.573526e-01
        96         5        2.971810e-01
        97         5       -1.116885e+00
        98         5       -9.764038e-02
        99         5        4.701697e-01
       100         5       -9.974916e-01
;

param theta:=
    1        2.598497e-01
    2        1.827065e-01
    3       -1.797176e+00
    4        1.347894e+00
    5       -3.688603e-01
;
param X_true:=
    1        6.788154e-01
    2        4.158643e+00
    3        3.070554e+00
    4        1.141504e+00
    5        3.233969e+00
    6        4.666627e+00
    7       -3.997691e+00
    8        4.740113e+00
    9       -7.746842e-01
   10        1.073860e+00
   11        2.749633e+00
   12       -1.676698e+00
   13        1.639926e+00
   14        6.802281e-01
   15       -4.392345e+00
   16       -3.088268e-01
   17        3.606157e+00
   18       -2.664065e+00
   19       -3.351410e+00
   20        1.104197e+00
   21       -1.210349e+00
   22        3.477734e+00
   23        1.293364e+00
   24       -7.932240e-01
   25       -2.959259e-01
   26       -3.808323e-01
   27        1.113007e-01
   28       -6.309344e-01
   29        3.517499e+00
   30       -1.390066e-01
   31        6.964580e-01
   32        5.797281e+00
   33        6.778156e-01
   34       -2.363031e+00
   35        7.308218e-03
   36        2.092429e+00
   37        3.487095e+00
   38        2.870811e+00
   39        1.622621e+00
   40       -2.843216e+00
   41        1.197561e+00
   42        3.421452e-01
   43        1.855038e+00
   44        5.051271e-02
   45       -2.348338e+00
   46        1.182054e+00
   47        3.721218e+00
   48        1.305972e+00
   49        1.456539e+00
   50       -2.289214e+00
   51       -1.122655e+00
   52       -4.027054e-01
   53       -7.407984e-01
   54        1.341181e+00
   55       -1.991825e+00
   56       -5.720634e-01
   57        3.558009e+00
   58        1.068221e+00
   59        6.635599e-01
   60       -3.743057e+00
   61       -4.053270e+00
   62        2.702212e+00
   63       -9.696812e-01
   64       -2.799149e+00
   65        2.794568e-01
   66        3.447246e-01
   67       -4.935716e+00
   68       -2.357096e+00
   69        1.381400e+00
   70        6.780247e-01
   71        1.158601e-01
   72        3.454915e+00
   73       -4.885766e-01
   74        1.603402e+00
   75        4.786424e+00
   76       -3.995269e-01
   77        1.881002e+00
   78        7.994213e-02
   79        3.043500e+00
   80        5.574157e-01
   81       -1.835551e+00
   82        1.356253e+00
   83        4.469256e+00
   84       -6.870745e-01
   85       -4.437077e+00
   86       -2.678572e+00
   87        1.224196e+00
   88       -7.079669e-01
   89       -1.140223e+00
   90        1.104682e+00
   91       -4.372036e+00
   92        8.927730e-02
   93        1.640500e+00
   94       -2.024125e+00
   95        2.327412e+00
   96       -1.193021e-01
   97        2.287166e+00
   98        8.209110e-01
   99       -3.325593e-01
  100       -1.150694e+00
;
param X:=
    1        6.788154e-01
    2        1.050330e+00
    3        3.070554e+00
    4        1.141504e+00
    5        3.233969e+00
    6        8.705194e-01
    7        1.188114e+00
    8       -7.315454e-01
    9        8.456834e-01
   10        1.073860e+00
   11        2.749633e+00
   12       -1.676698e+00
   13       -1.183368e+00
   14        7.259876e-01
   15       -2.018027e-01
   16       -9.102161e-02
   17        3.606157e+00
   18       -5.988176e-01
   19       -3.885775e-01
   20       -1.933992e+00
   21        4.314069e-01
   22       -1.886987e-01
   23        1.087272e+00
   24       -9.856778e-01
   25        1.636876e+00
   26       -4.932175e-01
   27        1.113007e-01
   28       -6.309344e-01
   29        1.403933e+00
   30       -1.513374e+00
   31        5.616665e-01
   32        5.797281e+00
   33        7.043802e-01
   34        1.512634e+00
   35        8.650766e-01
   36        1.190297e+00
   37        6.569923e-01
   38        2.870811e+00
   39       -5.898323e-01
   40       -2.081744e+00
   41       -1.233225e+00
   42       -8.500392e-01
   43       -2.045857e-01
   44       -1.280018e+00
   45       -2.348338e+00
   46        1.182054e+00
   47        3.721218e+00
   48        1.305972e+00
   49        1.456539e+00
   50       -5.454497e-01
   51       -2.587278e-01
   52       -4.027054e-01
   53        1.275933e+00
   54        9.521641e-02
   55        1.022577e-01
   56       -8.490301e-01
   57       -1.105862e+00
   58        1.068221e+00
   59        1.269193e-01
   60        2.113619e+00
   61       -5.422620e-02
   62        2.702212e+00
   63       -1.575422e+00
   64       -2.799149e+00
   65       -2.033610e+00
   66       -7.937584e-01
   67       -9.321154e-01
   68        1.896258e-01
   69        3.795793e-01
   70       -4.847625e-01
   71        1.158601e-01
   72        1.607781e-01
   73        5.276829e-01
   74        1.958878e-01
   75        4.898272e-01
   76        7.821700e-01
   77        1.881002e+00
   78       -1.499357e-01
   79        6.175903e-01
   80        1.405214e+00
   81        9.953786e-02
   82       -1.333387e+00
   83       -3.822412e-01
   84       -5.991534e-01
   85       -1.284151e-01
   86        7.760404e-01
   87        1.583731e+00
   88       -1.032352e+00
   89       -1.422331e+00
   90        1.756754e+00
   91       -4.372036e+00
   92        8.343685e-01
   93       -9.280596e-01
   94        2.697289e-01
   95       -2.464642e-01
   96       -6.062446e-01
   97       -6.054638e-03
   98        1.502495e+00
   99       -2.734056e-01
  100        1.690996e-01
;
param outliervec:=
    1    0
    2    1
    3    0
    4    0
    5    0
    6    1
    7    1
    8    1
    9    1
   10    0
   11    0
   12    0
   13    1
   14    1
   15    1
   16    1
   17    0
   18    1
   19    1
   20    1
   21    1
   22    1
   23    1
   24    1
   25    1
   26    1
   27    0
   28    0
   29    1
   30    1
   31    1
   32    0
   33    1
   34    1
   35    1
   36    1
   37    1
   38    0
   39    1
   40    1
   41    1
   42    1
   43    1
   44    1
   45    0
   46    0
   47    0
   48    0
   49    0
   50    1
   51    1
   52    0
   53    1
   54    1
   55    1
   56    1
   57    1
   58    0
   59    1
   60    1
   61    1
   62    0
   63    1
   64    0
   65    1
   66    1
   67    1
   68    1
   69    1
   70    1
   71    0
   72    1
   73    1
   74    1
   75    1
   76    1
   77    0
   78    1
   79    1
   80    1
   81    1
   82    1
   83    1
   84    1
   85    1
   86    1
   87    1
   88    1
   89    1
   90    1
   91    0
   92    1
   93    1
   94    1
   95    1
   96    1
   97    1
   98    1
   99    1
  100    1
;